@relation entrenamientoproaula_500

@attribute Fecha {02/02/2024,02/08/2024,29/05/2024,27/10/2024,28/07/2024,08/03/2024,19/08/2024,06/04/2024,18/08/2024,19/03/2024,24/03/2024,25/09/2024,22/01/2024,14/05/2024,14/03/2024,20/01/2024,08/10/2024,15/10/2024,24/07/2024,10/07/2024,07/05/2024,20/06/2024,13/03/2024,14/01/2024,24/02/2024,15/03/2024,25/04/2024,23/06/2024,20/05/2024,13/07/2024,20/10/2024,16/01/2024,14/10/2024,13/09/2024,05/01/2024,11/02/2024,07/02/2024,21/07/2024,25/10/2024,28/06/2024,11/10/2024,16/06/2024,27/02/2024,17/10/2024,30/10/2024,27/09/2024,11/01/2024,28/03/2024,26/03/2024,29/10/2024,13/02/2024,18/09/2024,03/06/2024,16/09/2024,15/08/2024,26/04/2024,26/05/2024,12/05/2024,21/01/2024,12/04/2024,17/03/2024,14/02/2024,10/10/2024,19/10/2024,16/08/2024,22/10/2024,30/06/2024,13/08/2024,20/02/2024,21/10/2024,31/10/2024,07/06/2024,04/02/2024,21/05/2024,22/07/2024,09/07/2024,19/06/2024,30/03/2024,25/01/2024,16/07/2024,07/09/2024,29/01/2024,23/05/2024,10/08/2024,27/08/2024,11/08/2024,25/06/2024,14/06/2024,04/09/2024,18/07/2024,23/09/2024,12/08/2024,31/05/2024,03/02/2024,17/01/2024,08/04/2024,05/05/2024,03/07/2024,15/01/2024,09/03/2024,02/09/2024,31/07/2024,31/01/2024,03/03/2024,28/09/2024,20/03/2024,25/03/2024,19/01/2024,27/07/2024,27/05/2024,05/10/2024,11/03/2024,18/06/2024,12/02/2024,03/05/2024,15/09/2024,29/08/2024,04/03/2024,14/08/2024,09/10/2024,01/10/2024,22/03/2024,07/01/2024,17/04/2024,21/06/2024,14/07/2024,04/08/2024,03/10/2024,21/02/2024,04/06/2024,24/09/2024,08/01/2024,10/06/2024,26/01/2024,15/04/2024,26/07/2024,08/02/2024,27/01/2024,10/05/2024,01/02/2024,16/02/2024,02/10/2024,29/07/2024,28/05/2024,21/03/2024,06/07/2024,04/07/2024,10/09/2024,09/06/2024,28/02/2024,26/09/2024,30/01/2024,22/04/2024,15/06/2024,25/02/2024,12/09/2024,08/07/2024,01/06/2024,15/05/2024,24/10/2024,05/08/2024,23/07/2024,29/03/2024,21/08/2024,30/04/2024,29/06/2024,24/04/2024,01/03/2024,22/09/2024,18/04/2024,12/01/2024,11/04/2024,05/03/2024,06/06/2024,23/04/2024,17/05/2024,24/05/2024,10/03/2024,12/07/2024,11/06/2024,17/09/2024,03/09/2024,15/02/2024,02/01/2024,30/07/2024,27/06/2024,30/09/2024,24/06/2024,12/03/2024,02/06/2024,21/04/2024,13/06/2024,29/09/2024,01/05/2024,08/08/2024,05/04/2024,24/08/2024,05/02/2024,22/08/2024,22/05/2024,09/09/2024,28/10/2024,28/08/2024,06/03/2024,07/07/2024,14/09/2024,11/07/2024,22/02/2024,09/04/2024,28/01/2024,18/03/2024,10/02/2024,18/05/2024,07/08/2024,27/03/2024,01/09/2024,31/08/2024,02/04/2024,12/06/2024,26/10/2024,06/05/2024,26/02/2024,09/02/2024,16/03/2024,09/05/2024,21/09/2024,30/08/2024,06/02/2024,19/04/2024,16/10/2024,31/03/2024,23/10/2024,02/07/2024,04/05/2024,06/08/2024,11/09/2024,01/04/2024,13/10/2024,07/04/2024,01/01/2024,28/04/2024,01/08/2024,26/08/2024,06/10/2024}
@attribute DíaSemana {Viernes,Miércoles,Domingo,Sabado,Martes,Lunes,Jueves}
@attribute HoraIngreso {05:11:23,14:34:51,14:17:54,06:21:49,11:30:18,20:26:23,05:50:56,21:36:24,06:53:40,01:00:27,10:59:40,09:23:23,10:15:26,07:42:23,15:28:55,05:36:00,20:16:49,08:34:53,17:09:01,04:55:18,01:48:53,11:56:22,08:34:33,16:21:29,07:08:55,04:55:34,11:43:40,07:58:53,16:28:58,14:38:25,19:54:22,08:18:51,20:02:11,08:13:24,08:44:34,16:03:06,15:18:36,06:24:44,18:26:03,11:36:12,14:44:48,08:29:17,04:56:12,17:52:09,13:09:12,07:17:48,01:15:14,16:13:41,01:42:08,16:13:59,17:24:30,17:29:53,12:02:20,21:46:57,09:02:15,08:12:16,12:08:02,12:23:48,14:50:28,11:34:03,11:08:13,08:55:44,02:43:27,08:57:21,15:12:53,21:34:13,03:13:10,13:37:35,04:45:46,14:01:54,03:42:42,11:24:10,08:46:54,10:04:58,06:24:36,14:52:20,14:43:41,04:15:17,01:52:33,09:19:47,04:15:08,13:25:45,13:43:06,19:00:11,12:13:32,14:12:05,15:27:01,23:05:37,06:13:59,09:59:58,00:40:50,00:54:36,17:24:39,20:09:15,11:54:51,16:23:07,08:41:17,20:34:01,23:20:11,08:55:00,18:48:23,08:12:53,09:59:23,12:00:34,14:21:24,20:43:46,12:15:13,03:15:49,19:10:36,09:33:26,02:25:17,11:28:51,10:35:24,15:32:15,01:52:50,16:10:46,17:25:19,13:29:51,20:51:15,06:47:35,12:04:45,08:07:22,09:52:42,19:05:42,07:41:17,16:39:27,03:28:29,15:26:23,08:21:55,09:59:04,09:55:25,13:52:48,10:31:38,07:52:22,14:41:02,14:54:07,07:32:09,12:37:14,18:32:58,08:13:26,10:42:33,16:28:57,02:25:42,08:34:48,09:13:37,17:46:03,11:28:07,09:48:41,06:23:21,13:26:56,19:05:35,15:17:35,14:00:07,17:21:07,21:11:17,22:04:19,13:17:09,08:42:40,09:30:23,11:38:41,12:48:43,07:46:41,16:34:50,07:15:55,20:06:21,15:53:57,08:36:30,10:40:53,15:28:02,13:32:34,07:13:42,06:37:20,19:27:30,12:14:53,06:49:25,13:28:42,02:22:34,13:18:07,06:55:43,05:07:17,19:27:20,17:21:04,05:43:46,06:00:35,08:42:06,19:47:26,08:10:31,11:28:57,22:14:01,17:03:18,16:22:48,01:55:41,03:45:08,05:05:22,12:05:14,10:29:13,07:00:16,13:42:37,08:23:34,20:31:26,06:19:45,17:51:07,08:49:36,13:09:43,17:56:49,08:27:32,05:25:23,07:01:24,13:41:45,08:15:33,10:28:15,19:32:45,08:53:12,11:34:27,16:23:02,10:23:25,04:39:38,05:52:11,16:06:00,19:05:51,01:12:44,06:42:57,11:15:37,08:54:42,06:39:16,19:38:08,08:39:46,07:19:46,09:25:43,13:25:35,13:11:37,07:21:17,08:45:58,14:04:02,23:27:24,19:47:44,07:06:08,17:07:47,11:46:09,04:38:03,03:31:40,06:04:32,14:18:19,15:14:52,16:21:35,12:15:11,15:19:06,08:19:29,11:41:22,06:26:22,10:23:52,17:41:26,21:41:11,07:41:50,08:42:55,22:14:04,14:23:06,11:25:18,18:41:04,23:01:27,13:23:39,08:48:34,10:02:17,06:19:00,19:47:55,20:04:28,16:00:16,12:40:55,05:43:57,07:53:37,14:05:25,17:08:38,11:01:31,06:35:37,08:25:33,20:02:50,04:44:08,03:16:13,09:00:16,11:50:52,14:55:03,07:27:56,22:54:07,14:11:53,13:55:34,12:01:25,17:48:38,18:53:30,11:25:31,12:20:54,01:06:18,06:47:13,19:44:25,01:24:49,10:21:20,14:35:53,06:48:34,17:44:22,06:31:21,10:46:45,17:40:41,13:12:07,08:46:42,09:26:21,15:24:54,19:41:44,15:38:32,10:58:35,09:33:23,08:09:24,16:43:31,06:31:44,16:17:33,12:32:58,16:55:41,15:16:41,00:34:22,14:58:18,10:06:47,04:29:36,12:31:58,22:57:42,15:00:21,18:26:09,08:33:29,17:20:05,07:40:57,08:57:18,06:48:48,05:23:16,11:02:46,06:15:47,05:05:54,05:21:51,13:54:35,16:33:32,04:44:27,06:27:17,19:59:19,20:38:18,07:22:19,17:40:37,19:23:16,22:20:37,16:18:20,02:19:59,14:38:44,03:07:00,09:52:12,01:50:18,14:43:30,12:13:33,06:22:54,07:04:24,04:13:12,08:19:05,07:19:28,06:20:38,10:15:19,14:53:44,13:30:28,16:05:57,01:15:36,13:32:42,18:43:15,22:59:50,10:11:29,03:44:10,19:49:31,15:56:24,07:29:55,21:10:59,03:43:28,08:47:53,08:38:23,13:24:38,18:22:13,20:31:53,12:51:12,20:19:40,08:25:41,20:06:00,14:59:43,12:41:54,01:56:56,08:44:00,09:17:12,06:50:43,06:08:34,18:23:18,15:50:34,06:56:53,22:32:23,10:04:33,15:19:36,21:05:03,17:14:10,16:23:06,17:14:07,12:45:54,09:57:05,18:59:30,04:11:10,06:52:20,12:48:49,00:08:12,07:14:52,08:27:50,12:19:49,11:53:47,03:20:38,10:57:58,04:23:16,12:23:08,15:41:55,10:13:21,09:38:57,13:50:50,11:21:01,07:39:43,09:05:13,04:09:21,12:53:42,18:11:47,10:09:05,09:36:13,08:28:29,15:47:20,14:03:37,11:56:51,01:08:12,13:28:50,01:35:05,10:41:26,00:25:21,07:38:44,08:15:02,17:09:19,06:32:31,16:58:13,17:39:42,04:23:56,08:44:17,06:47:47,12:57:33,03:19:18,11:00:57,12:22:41,13:58:26,16:11:58,14:34:05,13:02:06,05:08:20,17:51:15,12:25:57,07:49:36,07:04:51,05:04:19,00:44:07,16:43:59,13:25:44,19:39:47,01:21:53,13:57:19,16:32:29,15:42:30,14:13:25,04:35:25,08:01:03,09:48:18,01:28:46,14:57:02,21:08:37,14:29:43,12:02:58,16:38:39,06:25:23,15:51:29,07:23:42,23:05:27,04:13:28,20:11:11,16:31:04,17:39:40,06:53:59,18:52:40,12:11:59,04:38:34,03:28:13,07:21:59,12:50:06,06:56:36,17:20:09,09:53:26,11:14:41,07:35:59,08:01:46,09:21:45,08:03:39}
@attribute HoraSalida {09:40:23,19:34:51,13:07:54,12:03:49,14:12:18,20:17:23,18:38:56,00:40:24,10:10:40,11:41:27,12:05:40,09:34:23,05:22:26,10:33:23,19:31:55,11:36:00,21:06:49,13:39:53,21:57:01,06:24:18,01:53:53,20:32:22,14:16:33,22:18:29,11:31:55,09:26:34,13:27:40,12:21:53,21:11:58,15:11:25,01:04:22,12:21:51,12:33:11,10:36:24,10:34:34,22:30:06,19:27:36,09:44:44,20:51:03,13:55:12,14:43:48,11:01:17,11:27:12,20:40:09,18:24:12,08:29:48,06:13:14,20:18:41,07:05:08,19:05:59,18:54:30,18:17:53,12:07:20,13:48:57,11:05:15,13:22:16,13:14:02,18:37:48,18:05:28,11:59:03,08:00:13,10:57:44,04:18:27,12:46:21,19:57:53,23:59:13,00:35:10,17:30:35,06:26:46,17:32:54,04:28:42,12:30:10,08:51:54,14:48:58,07:22:36,20:58:20,16:06:41,05:32:17,16:40:33,13:55:47,06:16:08,14:03:45,18:27:06,19:34:11,15:14:32,15:36:05,19:35:01,13:05:37,09:05:59,14:20:58,16:32:50,04:41:36,23:25:39,20:25:15,02:20:51,17:31:07,13:56:17,21:08:01,14:31:11,10:47:00,00:08:23,16:37:53,10:49:23,16:50:34,17:45:24,22:09:46,14:31:13,05:21:49,22:16:36,12:47:26,07:21:17,01:38:51,15:28:24,18:01:15,10:16:50,18:03:46,19:48:19,14:00:51,00:21:15,09:34:35,12:45:45,10:38:22,13:40:42,21:39:42,12:31:17,20:40:27,09:35:29,18:32:23,11:44:55,13:37:04,12:20:25,15:49:48,18:37:38,08:19:22,15:50:02,15:44:07,07:37:09,15:28:14,21:38:58,10:17:26,10:47:33,19:47:57,02:52:42,10:39:48,12:31:37,17:59:03,13:28:07,11:10:41,09:29:21,18:13:56,22:31:35,17:33:35,16:06:07,20:24:07,08:49:17,22:28:19,16:39:09,09:30:40,04:46:23,12:31:41,12:53:43,07:51:41,01:09:50,09:23:55,22:48:21,17:26:57,10:05:30,10:45:53,19:20:02,16:54:34,08:00:42,11:34:20,22:52:30,13:14:53,08:20:25,15:52:42,07:54:34,16:54:07,11:00:43,11:23:17,17:19:20,22:01:04,22:23:46,06:49:35,17:57:06,23:30:26,22:33:31,12:23:57,03:09:01,18:52:18,08:03:48,06:11:41,20:01:08,05:39:22,13:10:14,15:19:13,09:30:16,15:24:37,09:39:34,15:41:26,20:51:45,18:19:07,14:43:36,15:36:43,21:31:49,13:07:32,08:24:23,09:21:24,16:54:45,17:49:33,16:54:15,22:42:45,10:25:12,14:11:27,19:25:02,22:11:25,15:53:38,08:02:11,04:51:00,21:04:51,06:22:44,09:22:57,13:06:37,09:35:42,09:53:16,03:57:08,08:57:46,23:13:46,14:15:43,15:39:35,15:00:37,09:11:17,17:44:58,15:59:02,04:13:24,01:20:44,08:21:08,18:46:47,12:12:09,09:50:03,03:44:40,08:05:32,00:04:19,17:45:52,00:38:35,16:44:11,19:45:06,11:19:29,12:42:22,08:11:22,04:34:52,21:57:26,02:00:11,12:18:50,10:40:55,11:23:04,14:30:06,00:58:18,22:03:04,14:13:27,14:57:39,09:15:34,23:22:17,08:01:00,21:46:55,23:53:28,21:59:16,14:23:55,21:34:57,09:16:37,16:24:25,21:36:38,11:08:31,06:40:37,14:14:33,09:54:50,16:45:13,10:53:16,13:02:52,19:28:03,12:29:56,04:06:07,14:51:53,18:53:34,21:25:25,18:57:38,07:50:30,22:08:31,16:02:54,03:05:18,11:06:13,06:15:25,07:02:49,12:24:20,16:06:53,08:31:34,05:42:22,06:28:21,00:10:45,17:28:41,13:53:07,13:11:42,09:37:21,18:33:54,20:50:44,19:02:32,14:19:35,12:29:23,09:08:24,18:09:31,11:07:44,02:08:33,21:42:58,17:39:41,18:39:41,00:44:22,18:47:18,06:15:47,07:01:36,14:38:58,05:34:42,15:59:21,10:32:09,09:08:29,19:24:05,09:02:57,10:26:18,09:03:48,16:28:16,12:50:46,09:05:47,07:11:54,06:51:51,15:16:35,18:25:32,05:44:27,08:51:17,23:18:19,22:39:18,08:24:19,22:13:37,21:24:16,16:05:37,17:42:20,02:28:59,16:26:44,06:55:00,11:51:12,04:52:18,18:25:30,03:55:33,09:19:54,10:10:24,20:01:12,10:09:05,08:15:28,19:38:38,14:05:19,16:00:44,17:37:28,19:40:57,04:08:36,17:20:42,20:49:15,00:08:50,11:31:29,07:02:10,23:41:31,13:02:24,09:09:55,03:55:59,04:02:28,10:19:53,10:01:23,14:26:38,01:59:13,21:36:53,19:58:12,20:43:40,10:21:41,10:30:00,17:16:43,17:10:54,14:40:56,11:33:00,10:42:12,11:11:43,10:08:34,22:33:18,05:55:34,07:30:53,01:23:23,13:28:33,16:03:36,06:05:03,21:47:10,19:54:06,18:21:07,16:37:54,13:07:05,22:22:30,00:34:10,09:07:20,11:41:49,15:23:12,09:01:52,18:40:50,17:02:49,13:22:47,05:02:38,13:07:58,04:43:16,05:48:08,17:26:55,11:42:21,12:44:57,18:01:50,15:26:01,06:27:43,13:33:13,14:33:42,18:49:47,16:55:05,12:32:13,12:33:29,17:15:20,16:22:37,09:46:12,17:31:50,05:23:05,03:12:26,05:45:21,09:22:44,10:57:02,11:30:31,22:21:13,23:31:42,18:16:56,09:40:17,10:08:47,14:43:33,12:16:18,13:43:57,14:03:41,23:56:26,18:04:58,19:41:05,14:32:06,08:16:20,21:01:15,22:10:57,11:27:36,12:31:51,08:28:19,10:05:07,19:45:59,10:56:54,17:30:44,01:21:47,04:47:53,14:43:19,19:24:29,17:47:30,14:18:25,13:28:25,09:25:03,10:48:18,08:32:46,19:01:02,15:11:37,14:57:43,19:05:58,19:41:39,07:06:23,15:56:29,09:58:42,00:09:27,04:52:28,20:41:11,19:16:04,07:03:40,08:37:59,00:20:40,14:21:59,06:31:34,11:45:13,07:52:59,02:07:06,09:25:36,18:15:09,14:23:26,14:09:41,08:56:59,10:35:46,00:11:45,09:58:39}
@attribute TipoVehículo {Carro,Moto,Camioneta,Bicicleta}
@attribute RolUsuario {Residente,Visitante,Administrador}
@attribute CategoriaIngreso {03:00-06:00,12:00-15:00,06:00-09:00,09:00-12:00,18:00-21:00,21:00-24:00,00:00-03:00,15:00-18:00}
@attribute CategoriaSalida {09:00-12:00,18:00-21:00,12:00-15:00,00:00-03:00,03:00-06:00,21:00-24:00,06:00-09:00,15:00-18:00}
@attribute HorarioRecomendado {No,Sí}

@data
02/02/2024,Viernes,05:11:23,09:40:23,Carro,Residente,03:00-06:00,09:00-12:00,No
02/08/2024,Viernes,14:34:51,19:34:51,Carro,Residente,12:00-15:00,18:00-21:00,No
29/05/2024,Miércoles,14:17:54,13:07:54,Moto,Residente,12:00-15:00,12:00-15:00,No
27/10/2024,Domingo,06:21:49,12:03:49,Moto,Residente,06:00-09:00,12:00-15:00,No
28/07/2024,Domingo,11:30:18,14:12:18,Moto,Residente,09:00-12:00,12:00-15:00,Sí
08/03/2024,Viernes,20:26:23,20:17:23,Carro,Residente,18:00-21:00,18:00-21:00,No
19/08/2024,Domingo,05:50:56,18:38:56,Carro,Visitante,03:00-06:00,18:00-21:00,Sí
06/04/2024,Sabado,21:36:24,00:40:24,Moto,Residente,21:00-24:00,00:00-03:00,Sí
18/08/2024,Domingo,06:53:40,10:10:40,Carro,Residente,06:00-09:00,09:00-12:00,No
19/03/2024,Martes,01:00:27,11:41:27,Camioneta,Residente,00:00-03:00,09:00-12:00,Sí
24/03/2024,Domingo,10:59:40,12:05:40,Carro,Visitante,09:00-12:00,12:00-15:00,Sí
25/09/2024,Miércoles,09:23:23,09:34:23,Carro,Visitante,09:00-12:00,09:00-12:00,Sí
02/08/2024,Viernes,10:15:26,05:22:26,Carro,Visitante,09:00-12:00,03:00-06:00,Sí
22/01/2024,Lunes,07:42:23,10:33:23,Carro,Residente,06:00-09:00,09:00-12:00,No
14/05/2024,Martes,15:28:55,19:31:55,Moto,Administrador,21:00-24:00,18:00-21:00,Sí
14/03/2024,Jueves,05:36:00,11:36:00,Carro,Residente,03:00-06:00,09:00-12:00,No
20/01/2024,Sabado,20:16:49,21:06:49,Carro,Residente,18:00-21:00,21:00-24:00,Sí
08/10/2024,Martes,08:34:53,13:39:53,Carro,Residente,06:00-09:00,12:00-15:00,No
15/10/2024,Martes,17:09:01,21:57:01,Carro,Residente,15:00-18:00,21:00-24:00,Sí
24/07/2024,Miércoles,04:55:18,06:24:18,Camioneta,Visitante,03:00-06:00,06:00-09:00,Sí
10/07/2024,Miércoles,01:48:53,01:53:53,Carro,Residente,00:00-03:00,00:00-03:00,No
07/05/2024,Martes,11:56:22,20:32:22,Camioneta,Residente,09:00-12:00,18:00-21:00,Sí
20/06/2024,Jueves,08:34:33,14:16:33,Carro,Residente,06:00-09:00,12:00-15:00,No
13/03/2024,Miércoles,16:21:29,22:18:29,Carro,Residente,15:00-18:00,21:00-24:00,Sí
14/01/2024,Domingo,07:08:55,11:31:55,Carro,Residente,06:00-09:00,09:00-12:00,No
24/02/2024,Sabado,04:55:34,09:26:34,Moto,Administrador,03:00-06:00,09:00-12:00,Sí
19/03/2024,Martes,11:43:40,13:27:40,Carro,Residente,09:00-12:00,12:00-15:00,No
15/03/2024,Viernes,07:58:53,12:21:53,Moto,Residente,06:00-09:00,12:00-15:00,No
25/04/2024,Jueves,16:28:58,21:11:58,Moto,Residente,15:00-18:00,21:00-24:00,Sí
23/06/2024,Domingo,14:38:25,15:11:25,Moto,Administrador,12:00-15:00,15:00-18:00,No
20/05/2024,Lunes,19:54:22,01:04:22,Carro,Residente,18:00-21:00,00:00-03:00,Sí
13/07/2024,Sabado,08:18:51,12:21:51,Carro,Residente,06:00-09:00,12:00-15:00,No
20/10/2024,Domingo,20:02:11,12:33:11,Bicicleta,Residente,18:00-21:00,12:00-15:00,No
16/01/2024,Martes,08:13:24,10:36:24,Carro,Residente,06:00-09:00,09:00-12:00,No
14/10/2024,Lunes,08:44:34,10:34:34,Moto,Residente,06:00-09:00,09:00-12:00,No
13/09/2024,Viernes,16:03:06,22:30:06,Moto,Residente,15:00-18:00,21:00-24:00,Sí
05/01/2024,Viernes,15:18:36,19:27:36,Moto,Administrador,15:00-18:00,18:00-21:00,Sí
11/02/2024,Domingo,06:24:44,09:44:44,Carro,Residente,06:00-09:00,09:00-12:00,No
18/08/2024,Domingo,18:26:03,20:51:03,Carro,Residente,18:00-21:00,18:00-21:00,No
07/02/2024,Miércoles,11:36:12,13:55:12,Carro,Visitante,09:00-12:00,12:00-15:00,Sí
21/07/2024,Domingo,14:44:48,14:43:48,Carro,Residente,12:00-15:00,12:00-15:00,No
08/10/2024,Martes,08:29:17,11:01:17,Carro,Residente,06:00-09:00,09:00-12:00,No
25/10/2024,Viernes,04:56:12,11:27:12,Camioneta,Residente,03:00-06:00,09:00-12:00,Sí
28/06/2024,Viernes,17:52:09,20:40:09,Carro,Residente,15:00-18:00,18:00-21:00,Sí
11/10/2024,Viernes,13:09:12,18:24:12,Moto,Residente,12:00-15:00,18:00-21:00,No
16/06/2024,Domingo,07:17:48,08:29:48,Carro,Administrador,06:00-09:00,06:00-09:00,No
27/02/2024,Martes,01:15:14,06:13:14,Carro,Residente,00:00-03:00,06:00-09:00,Sí
17/10/2024,Jueves,16:13:41,20:18:41,Moto,Residente,15:00-18:00,18:00-21:00,Sí
30/10/2024,Miércoles,01:42:08,07:05:08,Carro,Administrador,00:00-03:00,06:00-09:00,Sí
27/09/2024,Viernes,16:13:59,19:05:59,Carro,Residente,15:00-18:00,18:00-21:00,Sí
11/01/2024,Jueves,17:24:30,18:54:30,Moto,Residente,15:00-18:00,18:00-21:00,Sí
28/03/2024,Jueves,17:29:53,18:17:53,Carro,Visitante,15:00-18:00,18:00-21:00,Sí
26/03/2024,Martes,12:02:20,12:07:20,Carro,Visitante,12:00-15:00,12:00-15:00,No
29/10/2024,Martes,21:46:57,13:48:57,Moto,Residente,21:00-24:00,12:00-15:00,Sí
13/02/2024,Martes,09:02:15,11:05:15,Moto,Visitante,09:00-12:00,09:00-12:00,Sí
18/09/2024,Miércoles,08:12:16,13:22:16,Carro,Residente,06:00-09:00,12:00-15:00,No
03/06/2024,Lunes,12:08:02,13:14:02,Carro,Visitante,12:00-15:00,12:00-15:00,No
16/09/2024,Lunes,12:23:48,18:37:48,Moto,Residente,12:00-15:00,18:00-21:00,No
15/08/2024,Jueves,14:50:28,18:05:28,Moto,Residente,12:00-15:00,18:00-21:00,No
11/02/2024,Domingo,11:34:03,11:59:03,Moto,Administrador,09:00-12:00,09:00-12:00,Sí
26/04/2024,Viernes,11:08:13,08:00:13,Carro,Visitante,09:00-12:00,06:00-09:00,Sí
25/10/2024,Viernes,08:55:44,10:57:44,Carro,Residente,06:00-09:00,09:00-12:00,No
26/05/2024,Domingo,02:43:27,04:18:27,Moto,Visitante,00:00-03:00,03:00-06:00,Sí
12/05/2024,Domingo,08:57:21,12:46:21,Carro,Visitante,06:00-09:00,12:00-15:00,Sí
21/01/2024,Domingo,15:12:53,19:57:53,Carro,Residente,15:00-18:00,18:00-21:00,Sí
15/10/2024,Martes,21:34:13,23:59:13,Carro,Residente,21:00-24:00,21:00-24:00,Sí
12/04/2024,Viernes,03:13:10,00:35:10,Moto,Residente,03:00-06:00,00:00-03:00,Sí
17/03/2024,Domingo,13:37:35,17:30:35,Moto,Residente,12:00-15:00,15:00-18:00,No
14/02/2024,Miércoles,04:45:46,06:26:46,Carro,Residente,03:00-06:00,06:00-09:00,Sí
10/10/2024,Jueves,14:01:54,17:32:54,?,Visitante,12:00-15:00,15:00-18:00,No
13/02/2024,Martes,03:42:42,04:28:42,?,Residente,03:00-06:00,03:00-06:00,Sí
19/10/2024,Sabado,11:24:10,12:30:10,Carro,Residente,09:00-12:00,12:00-15:00,Sí
20/10/2024,Domingo,08:46:54,08:51:54,Moto,Visitante,06:00-09:00,06:00-09:00,No
16/08/2024,Viernes,10:04:58,14:48:58,Carro,Residente,09:00-12:00,12:00-15:00,Sí
19/03/2024,Martes,06:24:36,07:22:36,Carro,Visitante,06:00-09:00,06:00-09:00,No
22/10/2024,Martes,14:52:20,20:58:20,Carro,Residente,12:00-15:00,18:00-21:00,No
30/06/2024,Domingo,14:43:41,16:06:41,Moto,Visitante,12:00-15:00,15:00-18:00,No
13/08/2024,Martes,04:15:17,05:32:17,Moto,Residente,03:00-06:00,03:00-06:00,Sí
10/10/2024,Jueves,01:52:33,16:40:33,Carro,Visitante,00:00-03:00,15:00-18:00,Sí
20/02/2024,Martes,09:19:47,13:55:47,Moto,Residente,09:00-12:00,12:00-15:00,No
11/01/2024,Jueves,04:15:08,06:16:08,Carro,Visitante,03:00-06:00,06:00-09:00,Sí
21/10/2024,Lunes,13:25:45,14:03:45,Carro,Residente,12:00-15:00,12:00-15:00,No
31/10/2024,Jueves,13:43:06,18:27:06,Carro,Residente,12:00-15:00,18:00-21:00,Sí
07/06/2024,Viernes,19:00:11,19:34:11,Carro,Visitante,18:00-21:00,18:00-21:00,No
04/02/2024,Domingo,12:13:32,15:14:32,Carro,Residente,12:00-15:00,15:00-18:00,No
21/05/2024,Martes,14:12:05,15:36:05,Carro,Residente,12:00-15:00,15:00-18:00,No
22/07/2024,Lunes,15:27:01,19:35:01,Carro,Residente,15:00-18:00,18:00-21:00,Sí
09/07/2024,Martes,23:05:37,13:05:37,Carro,Visitante,21:00-24:00,12:00-15:00,Sí
19/06/2024,Miércoles,06:13:59,09:05:59,Moto,Residente,06:00-09:00,09:00-12:00,No
30/03/2024,Sabado,09:59:58,14:20:58,Carro,Residente,09:00-12:00,12:00-15:00,Sí
25/01/2024,Jueves,00:40:50,16:32:50,Carro,Visitante,12:00-15:00,15:00-18:00,No
16/07/2024,Martes,00:54:36,04:41:36,Carro,Visitante,00:00-03:00,03:00-06:00,No
07/09/2024,Sabado,17:24:39,23:25:39,Carro,Visitante,15:00-18:00,21:00-24:00,Sí
24/02/2024,Sabado,20:09:15,20:25:15,Carro,Residente,18:00-21:00,18:00-21:00,No
29/01/2024,Lunes,11:54:51,02:20:51,Moto,Residente,03:00-06:00,00:00-03:00,Sí
23/05/2024,Jueves,16:23:07,17:31:07,Carro,Visitante,15:00-18:00,15:00-18:00,Sí
10/08/2024,Sabado,08:41:17,13:56:17,Carro,Residente,06:00-09:00,12:00-15:00,No
27/08/2024,Martes,20:34:01,21:08:01,Carro,Visitante,18:00-21:00,21:00-24:00,No
11/08/2024,Domingo,23:20:11,14:31:11,Camioneta,Visitante,21:00-24:00,12:00-15:00,Sí
27/09/2024,Viernes,08:55:00,10:47:00,Carro,Visitante,06:00-09:00,09:00-12:00,No
25/06/2024,Martes,18:48:23,00:08:23,Carro,Residente,18:00-21:00,00:00-03:00,No
15/10/2024,Martes,08:12:53,16:37:53,Camioneta,Administrador,06:00-09:00,15:00-18:00,No
14/06/2024,Viernes,09:59:23,10:49:23,Moto,Visitante,09:00-12:00,09:00-12:00,Sí
04/09/2024,Miércoles,12:00:34,16:50:34,Carro,Residente,12:00-15:00,15:00-18:00,No
18/07/2024,Jueves,14:21:24,17:45:24,Moto,Visitante,12:00-15:00,15:00-18:00,No
23/09/2024,Lunes,20:43:46,22:09:46,Carro,Visitante,18:00-21:00,21:00-24:00,No
02/08/2024,Viernes,12:15:13,14:31:13,Carro,Residente,12:00-15:00,12:00-15:00,No
12/08/2024,Lunes,03:15:49,05:21:49,Carro,Residente,03:00-06:00,03:00-06:00,Sí
22/07/2024,Lunes,19:10:36,22:16:36,Moto,Residente,18:00-21:00,21:00-24:00,No
10/07/2024,Miércoles,09:33:26,12:47:26,Carro,Residente,09:00-12:00,12:00-15:00,Sí
31/05/2024,Viernes,02:25:17,07:21:17,Moto,Residente,00:00-03:00,06:00-09:00,Sí
03/02/2024,Lunes,11:28:51,01:38:51,Moto,Residente,09:00-12:00,00:00-03:00,Sí
18/08/2024,Domingo,10:35:24,15:28:24,Carro,Residente,09:00-12:00,15:00-18:00,Sí
17/01/2024,Miércoles,15:32:15,18:01:15,Carro,Residente,15:00-18:00,18:00-21:00,Sí
09/07/2024,Martes,01:52:50,10:16:50,Carro,Residente,00:00-03:00,09:00-12:00,No
08/04/2024,Lunes,16:10:46,18:03:46,Carro,Residente,15:00-18:00,18:00-21:00,Sí
05/05/2024,Domingo,17:25:19,19:48:19,Carro,Residente,15:00-18:00,18:00-21:00,Sí
03/07/2024,Miércoles,13:29:51,14:00:51,Carro,Administrador,12:00-15:00,12:00-15:00,No
15/01/2024,Lunes,20:51:15,00:21:15,Carro,Visitante,18:00-21:00,00:00-03:00,No
09/03/2024,Sabado,06:47:35,09:34:35,Carro,Residente,06:00-09:00,09:00-12:00,No
02/09/2024,Lunes,12:04:45,12:45:45,Carro,Visitante,12:00-15:00,12:00-15:00,No
31/07/2024,Miércoles,08:07:22,10:38:22,Carro,Residente,06:00-09:00,09:00-12:00,No
31/01/2024,Miércoles,09:52:42,13:40:42,Carro,Residente,09:00-12:00,12:00-15:00,Sí
03/03/2024,Domingo,19:05:42,21:39:42,Carro,Residente,18:00-21:00,21:00-24:00,No
28/09/2024,Sabado,07:41:17,12:31:17,Carro,Residente,06:00-09:00,12:00-15:00,No
22/01/2024,Lunes,16:39:27,20:40:27,Moto,Residente,15:00-18:00,18:00-21:00,Sí
20/03/2024,Miércoles,03:28:29,09:35:29,Carro,Residente,12:00-15:00,09:00-12:00,No
25/03/2024,Lunes,15:26:23,18:32:23,Carro,Visitante,15:00-18:00,18:00-21:00,Sí
19/01/2024,Viernes,08:21:55,11:44:55,Moto,Residente,06:00-09:00,09:00-12:00,No
17/10/2024,Jueves,09:59:04,13:37:04,Carro,Visitante,09:00-12:00,12:00-15:00,Sí
27/07/2024,Sabado,09:55:25,12:20:25,Carro,Visitante,09:00-12:00,12:00-15:00,Sí
27/05/2024,Lunes,13:52:48,15:49:48,Carro,Residente,12:00-15:00,15:00-18:00,No
16/01/2024,Martes,10:31:38,18:37:38,?,Residente,09:00-12:00,18:00-21:00,Sí
05/10/2024,Sabado,07:52:22,08:19:22,Moto,Administrador,06:00-09:00,06:00-09:00,No
11/03/2024,Lunes,14:41:02,15:50:02,Moto,Residente,12:00-15:00,15:00-18:00,No
18/06/2024,Martes,14:54:07,15:44:07,Carro,Visitante,12:00-15:00,15:00-18:00,No
06/04/2024,Sabado,07:32:09,07:37:09,Moto,Administrador,06:00-09:00,06:00-09:00,No
11/01/2024,Jueves,12:37:14,15:28:14,Carro,Residente,12:00-15:00,15:00-18:00,No
14/05/2024,Martes,18:32:58,21:38:58,Carro,Residente,18:00-21:00,21:00-24:00,No
02/08/2024,Viernes,08:13:26,10:17:26,Carro,Residente,06:00-09:00,09:00-12:00,No
03/03/2024,Domingo,10:42:33,10:47:33,Moto,Administrador,09:00-12:00,09:00-12:00,Sí
12/02/2024,Lunes,16:28:57,19:47:57,Moto,Residente,15:00-18:00,18:00-21:00,Sí
03/05/2024,Viernes,02:25:42,02:52:42,Carro,Residente,00:00-03:00,00:00-03:00,No
08/04/2024,Lunes,08:34:48,10:39:48,Carro,Visitante,06:00-09:00,09:00-12:00,No
15/09/2024,Domingo,09:13:37,12:31:37,Carro,Residente,09:00-12:00,12:00-15:00,Sí
29/08/2024,Jueves,17:46:03,17:59:03,Moto,Visitante,15:00-18:00,15:00-18:00,Sí
10/07/2024,Miércoles,11:28:07,13:28:07,Carro,Residente,09:00-12:00,12:00-15:00,Sí
05/10/2024,Sabado,09:48:41,11:10:41,Moto,Residente,09:00-12:00,09:00-12:00,Sí
15/10/2024,Martes,06:23:21,09:29:21,Moto,Visitante,06:00-09:00,09:00-12:00,No
05/05/2024,Domingo,13:26:56,18:13:56,Carro,Visitante,12:00-15:00,18:00-21:00,No
04/03/2024,Lunes,19:05:35,22:31:35,Carro,Residente,18:00-21:00,21:00-24:00,No
14/08/2024,Miércoles,15:17:35,17:33:35,Carro,Residente,15:00-18:00,15:00-18:00,Sí
09/10/2024,Miércoles,14:00:07,16:06:07,Moto,Residente,12:00-15:00,15:00-18:00,No
01/10/2024,Martes,17:21:07,20:24:07,Moto,Residente,15:00-18:00,18:00-21:00,Sí
19/10/2024,Sabado,21:11:17,08:49:17,Carro,Residente,21:00-24:00,06:00-09:00,No
12/08/2024,Domingo,22:04:19,22:28:19,Moto,Residente,21:00-24:00,21:00-24:00,Sí
22/03/2024,Viernes,13:17:09,16:39:09,Moto,Residente,12:00-15:00,15:00-18:00,No
04/02/2024,Domingo,08:42:40,09:30:40,Carro,Residente,06:00-09:00,09:00-12:00,No
07/01/2024,Domingo,09:30:23,04:46:23,Carro,Residente,09:00-12:00,03:00-06:00,Sí
17/04/2024,Miércoles,11:38:41,12:31:41,Carro,Residente,09:00-12:00,12:00-15:00,Sí
21/10/2024,Lunes,12:48:43,12:53:43,Carro,Visitante,12:00-15:00,12:00-15:00,No
21/06/2024,Viernes,07:46:41,07:51:41,Carro,Visitante,06:00-09:00,06:00-09:00,No
14/07/2024,Jueves,16:34:50,01:09:50,Moto,Residente,15:00-18:00,00:00-03:00,Sí
04/08/2024,Domingo,07:15:55,09:23:55,Carro,Visitante,06:00-09:00,09:00-12:00,No
10/07/2024,Miércoles,20:06:21,22:48:21,Carro,Residente,18:00-21:00,21:00-24:00,Sí
28/06/2024,Lunes,15:53:57,17:26:57,Moto,Residente,15:00-18:00,15:00-18:00,Sí
03/10/2024,Jueves,08:36:30,10:05:30,Carro,Residente,06:00-09:00,09:00-12:00,No
21/02/2024,Miércoles,10:40:53,10:45:53,Carro,Residente,09:00-12:00,09:00-12:00,Sí
14/07/2024,Viernes,15:28:02,19:20:02,Carro,Residente,15:00-18:00,18:00-21:00,Sí
04/06/2024,Martes,13:32:34,16:54:34,Carro,Residente,12:00-15:00,15:00-18:00,No
24/09/2024,Martes,07:13:42,08:00:42,Carro,Visitante,06:00-09:00,06:00-09:00,No
08/01/2024,Lunes,06:37:20,11:34:20,Carro,Residente,06:00-09:00,09:00-12:00,No
10/08/2024,Sabado,19:27:30,22:52:30,Carro,Residente,18:00-21:00,21:00-24:00,Sí
08/01/2024,Lunes,12:14:53,13:14:53,Moto,Visitante,12:00-15:00,12:00-15:00,No
10/06/2024,Lunes,06:49:25,08:20:25,Moto,Visitante,06:00-09:00,06:00-09:00,No
26/01/2024,Viernes,13:28:42,15:52:42,Carro,Residente,12:00-15:00,15:00-18:00,No
15/04/2024,Lunes,02:22:34,07:54:34,Carro,Residente,00:00-03:00,06:00-09:00,No
26/07/2024,Viernes,13:18:07,16:54:07,Moto,Residente,12:00-15:00,15:00-18:00,No
08/02/2024,Jueves,06:55:43,11:00:43,Moto,Visitante,06:00-09:00,09:00-12:00,No
08/10/2024,Martes,05:07:17,11:23:17,Bicicleta,Visitante,03:00-06:00,09:00-12:00,Sí
04/03/2024,Lunes,19:27:20,17:19:20,Carro,Visitante,18:00-21:00,15:00-18:00,No
27/01/2024,Sabado,17:21:04,22:01:04,Carro,Residente,15:00-18:00,21:00-24:00,Sí
10/05/2024,Viernes,05:43:46,22:23:46,Moto,Residente,03:00-06:00,21:00-24:00,Sí
29/08/2024,Jueves,06:00:35,06:49:35,Carro,Administrador,06:00-09:00,06:00-09:00,No
01/02/2024,Jueves,08:42:06,17:57:06,Carro,Visitante,06:00-09:00,15:00-18:00,No
16/02/2024,Viernes,19:47:26,23:30:26,Carro,Residente,18:00-21:00,21:00-24:00,No
02/10/2024,Miércoles,08:10:31,22:33:31,Carro,Visitante,06:00-09:00,21:00-24:00,No
15/09/2024,Domingo,11:28:57,12:23:57,Moto,Residente,09:00-12:00,12:00-15:00,Sí
16/07/2024,Martes,22:14:01,03:09:01,Carro,Residente,21:00-24:00,03:00-06:00,Sí
04/08/2024,Domingo,17:03:18,18:52:18,Carro,Residente,15:00-18:00,18:00-21:00,Sí
09/03/2024,Sabado,16:22:48,08:03:48,Moto,Visitante,15:00-18:00,06:00-09:00,Sí
29/07/2024,Lunes,01:55:41,06:11:41,Moto,Residente,18:00-21:00,06:00-09:00,No
30/03/2024,Viernes,03:45:08,20:01:08,Carro,Visitante,03:00-06:00,18:00-21:00,Sí
28/05/2024,Martes,05:05:22,05:39:22,Carro,Visitante,03:00-06:00,03:00-06:00,Sí
14/06/2024,Viernes,12:05:14,13:10:14,Moto,Administrador,12:00-15:00,12:00-15:00,No
21/03/2024,Jueves,10:29:13,15:19:13,Carro,Residente,09:00-12:00,15:00-18:00,Sí
06/07/2024,Sabado,07:00:16,09:30:16,Carro,Residente,06:00-09:00,09:00-12:00,No
26/07/2024,Viernes,13:42:37,15:24:37,Moto,Residente,12:00-15:00,15:00-18:00,No
04/07/2024,Jueves,08:23:34,09:39:34,Carro,Visitante,06:00-09:00,09:00-12:00,No
10/09/2024,Martes,20:31:26,15:41:26,Carro,Visitante,18:00-21:00,15:00-18:00,No
29/01/2024,Lunes,06:19:45,20:51:45,?,Residente,06:00-09:00,18:00-21:00,No
03/06/2024,Lunes,17:51:07,18:19:07,Carro,Visitante,15:00-18:00,18:00-21:00,Sí
15/01/2024,Lunes,08:49:36,14:43:36,Carro,Residente,06:00-09:00,12:00-15:00,No
09/06/2024,Domingo,13:09:43,15:36:43,Carro,Visitante,12:00-15:00,15:00-18:00,No
28/02/2024,Miércoles,17:56:49,21:31:49,Moto,Residente,15:00-18:00,21:00-24:00,Sí
26/09/2024,Jueves,08:27:32,13:07:32,Carro,Residente,06:00-09:00,12:00-15:00,No
30/01/2024,Martes,05:25:23,08:24:23,Carro,Residente,03:00-06:00,06:00-09:00,Sí
22/04/2024,Lunes,07:01:24,09:21:24,Carro,Residente,06:00-09:00,09:00-12:00,No
15/06/2024,Sabado,13:41:45,16:54:45,Carro,Administrador,15:00-18:00,15:00-18:00,Sí
25/02/2024,Domingo,08:15:33,17:49:33,Carro,Administrador,06:00-09:00,15:00-18:00,No
03/05/2024,Viernes,10:28:15,16:54:15,Moto,Residente,09:00-12:00,15:00-18:00,Sí
12/09/2024,Jueves,19:32:45,22:42:45,Moto,Residente,18:00-21:00,21:00-24:00,No
08/07/2024,Lunes,08:53:12,10:25:12,Carro,Residente,06:00-09:00,09:00-12:00,No
01/06/2024,Sabado,11:34:27,14:11:27,Moto,Residente,09:00-12:00,12:00-15:00,Sí
15/05/2024,Miércoles,16:23:02,19:25:02,Carro,Residente,15:00-18:00,18:00-21:00,Sí
24/10/2024,Jueves,10:23:25,22:11:25,Bicicleta,Residente,09:00-12:00,21:00-24:00,Sí
10/08/2024,Sabado,04:39:38,15:53:38,Carro,Residente,03:00-06:00,15:00-18:00,No
05/08/2024,Lunes,05:52:11,08:02:11,Carro,Residente,03:00-06:00,06:00-09:00,Sí
23/07/2024,Martes,16:06:00,04:51:00,?,Residente,15:00-18:00,03:00-06:00,Sí
29/03/2024,Viernes,19:05:51,21:04:51,Carro,Visitante,18:00-21:00,21:00-24:00,No
21/08/2024,Miércoles,01:12:44,06:22:44,Moto,Visitante,21:00-24:00,06:00-09:00,Sí
27/10/2024,Domingo,06:42:57,09:22:57,Carro,Residente,06:00-09:00,09:00-12:00,No
30/04/2024,Martes,11:15:37,13:06:37,Carro,Residente,09:00-12:00,12:00-15:00,Sí
16/07/2024,Martes,08:54:42,09:35:42,Carro,Administrador,06:00-09:00,09:00-12:00,No
29/06/2024,Sabado,06:39:16,09:53:16,Moto,Visitante,06:00-09:00,09:00-12:00,No
13/03/2024,Miércoles,19:38:08,03:57:08,Carro,Residente,18:00-21:00,03:00-06:00,Sí
24/10/2024,Jueves,08:39:46,08:57:46,Carro,Visitante,06:00-09:00,06:00-09:00,No
24/04/2024,Miércoles,07:19:46,23:13:46,Carro,Visitante,06:00-09:00,21:00-24:00,No
01/03/2024,Viernes,09:25:43,14:15:43,Carro,Residente,09:00-12:00,12:00-15:00,Sí
30/03/2024,Sabado,13:25:35,15:39:35,Carro,Visitante,12:00-15:00,15:00-18:00,No
22/09/2024,Domingo,13:11:37,15:00:37,Moto,Residente,12:00-15:00,15:00-18:00,No
18/04/2024,Jueves,07:21:17,09:11:17,Moto,Visitante,06:00-09:00,09:00-12:00,No
12/01/2024,Lunes,08:45:58,17:44:58,Carro,Residente,06:00-09:00,15:00-18:00,No
04/07/2024,Jueves,14:04:02,15:59:02,Moto,Visitante,12:00-15:00,15:00-18:00,No
11/04/2024,Jueves,23:27:24,04:13:24,Carro,Residente,21:00-24:00,03:00-06:00,No
22/07/2024,Lunes,19:47:44,01:20:44,Carro,Residente,18:00-21:00,00:00-03:00,No
15/08/2024,Jueves,07:06:08,08:21:08,Carro,Residente,06:00-09:00,06:00-09:00,No
05/03/2024,Martes,17:07:47,18:46:47,Carro,Residente,15:00-18:00,18:00-21:00,Sí
03/10/2024,Jueves,11:46:09,12:12:09,Carro,Visitante,09:00-12:00,12:00-15:00,Sí
06/06/2024,Jueves,04:38:03,09:50:03,Carro,Residente,03:00-06:00,09:00-12:00,Sí
16/07/2024,Jueves,03:31:40,03:44:40,Carro,Residente,03:00-06:00,03:00-06:00,Sí
23/04/2024,Martes,06:04:32,08:05:32,Moto,Residente,06:00-09:00,06:00-09:00,No
03/10/2024,Jueves,14:18:19,00:04:19,Camioneta,Residente,12:00-15:00,00:00-03:00,No
15/06/2024,Sabado,15:14:52,17:45:52,Carro,Residente,15:00-18:00,15:00-18:00,Sí
17/05/2024,Domingo,16:21:35,00:38:35,Carro,Residente,15:00-18:00,00:00-03:00,Sí
15/05/2024,Miércoles,12:15:11,16:44:11,Carro,Residente,12:00-15:00,15:00-18:00,No
28/02/2024,Miércoles,15:19:06,19:45:06,Moto,Residente,15:00-18:00,18:00-21:00,Sí
21/07/2024,Domingo,08:19:29,11:19:29,Carro,Residente,06:00-09:00,09:00-12:00,No
24/05/2024,Viernes,11:41:22,12:42:22,Carro,Residente,09:00-12:00,12:00-15:00,Sí
14/10/2024,Lunes,06:26:22,08:11:22,Moto,Visitante,06:00-09:00,06:00-09:00,No
03/07/2024,Miércoles,10:23:52,04:34:52,Carro,Residente,09:00-12:00,03:00-06:00,Sí
10/03/2024,Domingo,17:41:26,21:57:26,Moto,Residente,15:00-18:00,21:00-24:00,Sí
05/01/2024,Viernes,21:41:11,02:00:11,Camioneta,Residente,21:00-24:00,00:00-03:00,Sí
13/02/2024,Martes,07:41:50,12:18:50,Moto,Residente,06:00-09:00,12:00-15:00,No
12/07/2024,Viernes,08:42:55,10:40:55,Carro,Residente,06:00-09:00,09:00-12:00,No
11/06/2024,Martes,22:14:04,11:23:04,Bicicleta,Visitante,21:00-24:00,09:00-12:00,Sí
14/05/2024,Martes,14:23:06,14:30:06,Moto,Visitante,12:00-15:00,12:00-15:00,No
17/09/2024,Martes,11:25:18,00:58:18,Moto,Residente,12:00-15:00,00:00-03:00,No
16/06/2024,Domingo,18:41:04,22:03:04,Carro,Residente,18:00-21:00,21:00-24:00,No
31/10/2024,Jueves,23:01:27,14:13:27,Carro,Residente,21:00-24:00,12:00-15:00,Sí
01/03/2024,Viernes,13:23:39,14:57:39,Moto,Residente,12:00-15:00,12:00-15:00,No
04/09/2024,Miércoles,08:48:34,09:15:34,Moto,Residente,06:00-09:00,09:00-12:00,No
16/01/2024,Martes,10:02:17,23:22:17,Carro,Administrador,09:00-12:00,21:00-24:00,Sí
31/05/2024,Viernes,06:19:00,08:01:00,Carro,Visitante,06:00-09:00,06:00-09:00,No
03/09/2024,Martes,19:47:55,21:46:55,Carro,Residente,18:00-21:00,21:00-24:00,No
05/03/2024,Martes,20:04:28,23:53:28,Carro,Residente,18:00-21:00,21:00-24:00,No
15/02/2024,Lunes,16:00:16,21:59:16,Carro,Residente,15:00-18:00,21:00-24:00,Sí
29/05/2024,Miércoles,12:40:55,14:23:55,Carro,Visitante,12:00-15:00,12:00-15:00,No
09/07/2024,Martes,05:43:57,21:34:57,Carro,Residente,03:00-06:00,21:00-24:00,Sí
02/01/2024,Martes,07:53:37,09:16:37,Carro,Residente,06:00-09:00,09:00-12:00,No
11/08/2024,Domingo,14:05:25,16:24:25,Moto,Visitante,12:00-15:00,15:00-18:00,No
21/06/2024,Viernes,17:08:38,21:36:38,Moto,Residente,15:00-18:00,21:00-24:00,Sí
19/10/2024,Sabado,11:01:31,11:08:31,Carro,Visitante,09:00-12:00,09:00-12:00,Sí
30/07/2024,Martes,06:35:37,06:40:37,Moto,Visitante,06:00-09:00,06:00-09:00,No
27/06/2024,Jueves,08:25:33,14:14:33,Moto,Residente,06:00-09:00,12:00-15:00,No
30/09/2024,Lunes,20:02:50,09:54:50,?,Administrador,18:00-21:00,09:00-12:00,No
24/06/2024,Lunes,04:44:08,06:16:08,Carro,Residente,03:00-06:00,06:00-09:00,No
27/10/2024,Domingo,03:16:13,16:45:13,Carro,Administrador,03:00-06:00,15:00-18:00,Sí
12/03/2024,Martes,09:00:16,10:53:16,Carro,Residente,09:00-12:00,09:00-12:00,Sí
14/07/2024,Domingo,11:50:52,13:02:52,Carro,Visitante,09:00-12:00,12:00-15:00,Sí
16/08/2024,Viernes,14:55:03,19:28:03,Carro,Residente,12:00-15:00,18:00-21:00,No
18/06/2024,Martes,07:27:56,12:29:56,Carro,Residente,06:00-09:00,12:00-15:00,No
06/06/2024,Jueves,22:54:07,04:06:07,Moto,Residente,21:00-24:00,03:00-06:00,No
29/06/2024,Sabado,14:11:53,14:51:53,Carro,Visitante,12:00-15:00,12:00-15:00,No
11/06/2024,Martes,13:55:34,18:53:34,Carro,Residente,12:00-15:00,18:00-21:00,No
02/06/2024,Domingo,12:01:25,21:25:25,Carro,Visitante,00:00-03:00,21:00-24:00,Sí
21/04/2024,Domingo,17:48:38,18:57:38,Carro,Visitante,15:00-18:00,18:00-21:00,Sí
28/06/2024,Viernes,18:53:30,07:50:30,Carro,Visitante,18:00-21:00,06:00-09:00,Sí
13/06/2024,Jueves,11:25:31,22:08:31,Carro,Administrador,09:00-12:00,21:00-24:00,Sí
20/10/2024,Domingo,12:20:54,16:02:54,Carro,Residente,12:00-15:00,15:00-18:00,No
25/06/2024,Martes,01:06:18,03:05:18,Moto,Residente,00:00-03:00,03:00-06:00,No
21/07/2024,Domingo,06:47:13,11:06:13,Carro,Residente,06:00-09:00,09:00-12:00,No
13/09/2024,Viernes,19:44:25,06:15:25,Carro,Residente,06:00-09:00,06:00-09:00,No
16/07/2024,Martes,01:24:49,07:02:49,Moto,Residente,00:00-03:00,06:00-09:00,Sí
16/02/2024,Viernes,10:21:20,12:24:20,Carro,Visitante,09:00-12:00,12:00-15:00,Sí
29/09/2024,Domingo,14:35:53,16:06:53,Carro,Visitante,12:00-15:00,15:00-18:00,No
17/03/2024,Domingo,06:48:34,08:31:34,Moto,Residente,06:00-09:00,06:00-09:00,No
01/05/2024,Sabado,17:44:22,05:42:22,Carro,Visitante,15:00-18:00,03:00-06:00,Sí
10/06/2024,Lunes,06:31:21,06:28:21,Carro,Residente,06:00-09:00,06:00-09:00,No
19/10/2024,Sabado,10:46:45,00:10:45,Carro,Administrador,09:00-12:00,00:00-03:00,Sí
24/07/2024,Miércoles,17:40:41,17:28:41,Carro,Residente,15:00-18:00,15:00-18:00,Sí
26/05/2024,Domingo,13:12:07,13:53:07,Carro,Residente,12:00-15:00,12:00-15:00,No
07/02/2024,Miércoles,08:46:42,13:11:42,Carro,Residente,06:00-09:00,12:00-15:00,No
08/08/2024,Jueves,09:26:21,09:37:21,Carro,Visitante,09:00-12:00,09:00-12:00,Sí
21/08/2024,Miércoles,15:24:54,18:33:54,Carro,Residente,15:00-18:00,18:00-21:00,Sí
13/03/2024,Miércoles,19:41:44,20:50:44,Carro,Visitante,18:00-21:00,18:00-21:00,No
06/07/2024,Sabado,15:38:32,19:02:32,Moto,Residente,15:00-18:00,18:00-21:00,Sí
05/04/2024,Viernes,10:58:35,14:19:35,Carro,Residente,09:00-12:00,12:00-15:00,Sí
24/08/2024,Sabado,09:33:23,12:29:23,Carro,Residente,09:00-12:00,12:00-15:00,Sí
29/08/2024,Jueves,08:09:24,09:08:24,Carro,Residente,06:00-09:00,09:00-12:00,No
05/02/2024,Lunes,16:43:31,18:09:31,Carro,Residente,15:00-18:00,18:00-21:00,Sí
16/07/2024,Martes,06:31:44,11:07:44,Moto,Residente,06:00-09:00,09:00-12:00,No
16/01/2024,Martes,16:17:33,02:08:33,Moto,Residente,15:00-18:00,00:00-03:00,No
12/02/2024,Viernes,12:32:58,21:42:58,Moto,Residente,12:00-15:00,21:00-24:00,No
08/01/2024,Lunes,16:55:41,17:39:41,Carro,Administrador,15:00-18:00,15:00-18:00,Sí
25/10/2024,Viernes,15:16:41,18:39:41,Carro,Residente,15:00-18:00,18:00-21:00,Sí
28/07/2024,Lunes,00:34:22,00:44:22,Carro,Residente,00:00-03:00,00:00-03:00,Sí
06/06/2024,Jueves,14:58:18,18:47:18,Carro,Residente,12:00-15:00,18:00-21:00,No
13/08/2024,Martes,10:06:47,06:15:47,Moto,Visitante,09:00-12:00,06:00-09:00,Sí
22/07/2024,Lunes,04:29:36,07:01:36,Carro,Residente,03:00-06:00,06:00-09:00,Sí
14/07/2024,Domingo,12:31:58,14:38:58,Carro,Residente,12:00-15:00,12:00-15:00,No
22/07/2024,Lunes,22:57:42,05:34:42,Carro,Residente,06:00-09:00,03:00-06:00,No
04/08/2024,Domingo,15:00:21,15:59:21,Moto,Visitante,15:00-18:00,15:00-18:00,Sí
27/10/2024,Domingo,18:26:09,10:32:09,Carro,Residente,18:00-21:00,09:00-12:00,No
22/04/2024,Lunes,08:33:29,09:08:29,Carro,Residente,06:00-09:00,09:00-12:00,No
26/07/2024,Viernes,17:20:05,19:24:05,Carro,Residente,15:00-18:00,18:00-21:00,Sí
07/09/2024,Sabado,07:40:57,09:02:57,Moto,Visitante,06:00-09:00,09:00-12:00,No
25/04/2024,Jueves,08:57:18,10:26:18,Carro,Visitante,06:00-09:00,09:00-12:00,No
11/04/2024,Jueves,06:48:48,09:03:48,Carro,Visitante,06:00-09:00,09:00-12:00,No
20/05/2024,Lunes,05:23:16,16:28:16,Carro,Residente,00:00-03:00,15:00-18:00,Sí
19/08/2024,Lunes,11:02:46,12:50:46,Moto,Visitante,09:00-12:00,12:00-15:00,Sí
22/08/2024,Jueves,06:15:47,09:05:47,Moto,Residente,06:00-09:00,09:00-12:00,No
21/03/2024,Jueves,05:05:54,07:11:54,Carro,Residente,03:00-06:00,06:00-09:00,Sí
20/02/2024,Martes,05:21:51,06:51:51,Carro,Visitante,03:00-06:00,06:00-09:00,Sí
22/05/2024,Miércoles,13:54:35,15:16:35,Carro,Administrador,12:00-15:00,15:00-18:00,No
03/10/2024,Jueves,16:33:32,18:25:32,Moto,Visitante,15:00-18:00,18:00-21:00,Sí
27/10/2024,Domingo,04:44:27,05:44:27,Moto,Visitante,00:00-03:00,03:00-06:00,Sí
09/09/2024,Lunes,06:27:17,08:51:17,Carro,Residente,06:00-09:00,06:00-09:00,No
12/04/2024,Viernes,19:59:19,23:18:19,Moto,Residente,18:00-21:00,21:00-24:00,No
28/10/2024,Lunes,20:38:18,22:39:18,Moto,Administrador,18:00-21:00,21:00-24:00,No
28/08/2024,Miércoles,07:22:19,08:24:19,Moto,Visitante,06:00-09:00,06:00-09:00,No
06/03/2024,Miércoles,17:40:37,22:13:37,Moto,Residente,15:00-18:00,21:00-24:00,Sí
06/06/2024,Jueves,19:23:16,21:24:16,Carro,Visitante,18:00-21:00,21:00-24:00,No
07/07/2024,Domingo,22:20:37,16:05:37,Moto,Residente,21:00-24:00,15:00-18:00,Sí
18/04/2024,Jueves,16:18:20,17:42:20,Carro,Residente,15:00-18:00,15:00-18:00,Sí
27/09/2024,Viernes,02:19:59,02:28:59,Moto,Visitante,00:00-03:00,00:00-03:00,Sí
23/09/2024,Lunes,14:38:44,16:26:44,?,Residente,12:00-15:00,15:00-18:00,No
24/08/2024,Sabado,03:07:00,06:55:00,Moto,Residente,06:00-09:00,06:00-09:00,No
14/09/2024,Sabado,09:52:12,11:51:12,Carro,Visitante,09:00-12:00,09:00-12:00,Sí
05/04/2024,Viernes,01:50:18,04:52:18,Moto,Residente,00:00-03:00,03:00-06:00,Sí
10/09/2024,Martes,14:43:30,18:25:30,Carro,Residente,12:00-15:00,18:00-21:00,No
11/07/2024,Jueves,12:13:33,03:55:33,Carro,Administrador,12:00-15:00,03:00-06:00,No
22/02/2024,Jueves,06:22:54,09:19:54,Carro,Residente,06:00-09:00,09:00-12:00,No
09/04/2024,Martes,07:04:24,10:10:24,Moto,Residente,06:00-09:00,09:00-12:00,No
28/01/2024,Domingo,04:13:12,20:01:12,Carro,Residente,03:00-06:00,18:00-21:00,No
18/03/2024,Lunes,08:19:05,10:09:05,Carro,Administrador,06:00-09:00,09:00-12:00,No
10/02/2024,Sabado,07:19:28,08:15:28,Carro,Residente,06:00-09:00,06:00-09:00,No
18/05/2024,Lunes,06:20:38,19:38:38,Moto,Residente,06:00-09:00,18:00-21:00,No
27/09/2024,Viernes,10:15:19,14:05:19,Carro,Residente,09:00-12:00,12:00-15:00,Sí
14/01/2024,Domingo,14:53:44,16:00:44,Carro,Residente,12:00-15:00,15:00-18:00,No
07/01/2024,Domingo,13:30:28,17:37:28,Moto,Residente,12:00-15:00,15:00-18:00,No
15/04/2024,Lunes,16:05:57,19:40:57,Carro,Residente,15:00-18:00,18:00-21:00,Sí
07/08/2024,Miércoles,01:15:36,04:08:36,Carro,Residente,00:00-03:00,03:00-06:00,Sí
27/03/2024,Miércoles,13:32:42,17:20:42,Carro,Residente,12:00-15:00,15:00-18:00,No
21/01/2024,Domingo,18:43:15,20:49:15,Carro,Visitante,18:00-21:00,18:00-21:00,No
02/01/2024,Martes,22:59:50,00:08:50,Moto,Visitante,21:00-24:00,00:00-03:00,Sí
01/09/2024,Domingo,10:11:29,11:31:29,Carro,Visitante,09:00-12:00,09:00-12:00,Sí
31/08/2024,Sabado,03:44:10,07:02:10,Moto,Residente,03:00-06:00,06:00-09:00,Sí
02/04/2024,Martes,19:49:31,23:41:31,Carro,Residente,18:00-21:00,21:00-24:00,No
07/02/2024,Miércoles,15:56:24,13:02:24,Carro,Residente,15:00-18:00,12:00-15:00,Sí
08/08/2024,Jueves,07:29:55,09:09:55,Carro,Visitante,06:00-09:00,09:00-12:00,No
22/01/2024,Lunes,21:10:59,03:55:59,Moto,Visitante,21:00-24:00,03:00-06:00,Sí
17/10/2024,Jueves,03:43:28,04:02:28,Carro,Visitante,03:00-06:00,03:00-06:00,Sí
12/06/2024,Miércoles,08:47:53,10:19:53,Carro,Residente,06:00-09:00,09:00-12:00,No
01/09/2024,Domingo,08:38:23,10:01:23,Carro,Residente,06:00-09:00,09:00-12:00,No
26/10/2024,Sabado,13:24:38,14:26:38,Carro,Residente,12:00-15:00,12:00-15:00,No
14/07/2024,Domingo,18:22:13,01:59:13,Carro,Visitante,00:00-03:00,00:00-03:00,Sí
26/01/2024,Viernes,20:31:53,21:36:53,Carro,Visitante,18:00-21:00,21:00-24:00,No
30/04/2024,Martes,12:51:12,19:58:12,Carro,Residente,12:00-15:00,18:00-21:00,No
14/08/2024,Miércoles,20:19:40,20:43:40,Carro,Administrador,18:00-21:00,18:00-21:00,No
15/05/2024,Miércoles,08:25:41,10:21:41,Carro,Residente,06:00-09:00,09:00-12:00,No
23/09/2024,Sabado,20:06:00,10:30:00,Carro,Residente,18:00-21:00,09:00-12:00,No
17/04/2024,Miércoles,14:59:43,17:16:43,Moto,Residente,12:00-15:00,15:00-18:00,No
02/06/2024,Domingo,12:41:54,17:10:54,Carro,Residente,12:00-15:00,15:00-18:00,No
24/07/2024,Miércoles,01:56:56,14:40:56,Carro,Administrador,00:00-03:00,12:00-15:00,Sí
23/07/2024,Martes,08:44:00,11:33:00,Moto,Visitante,06:00-09:00,09:00-12:00,No
06/05/2024,Lunes,09:17:12,10:42:12,Moto,Visitante,09:00-12:00,09:00-12:00,Sí
26/02/2024,Lunes,06:50:43,11:11:43,Moto,Residente,06:00-09:00,09:00-12:00,No
02/01/2024,Martes,06:08:34,10:08:34,Carro,Residente,06:00-09:00,09:00-12:00,No
27/06/2024,Jueves,18:23:18,22:33:18,Carro,Residente,18:00-21:00,21:00-24:00,No
22/08/2024,Jueves,15:50:34,05:55:34,Moto,Residente,09:00-12:00,03:00-06:00,Sí
15/01/2024,Lunes,06:56:53,07:30:53,Carro,Visitante,06:00-09:00,06:00-09:00,No
09/02/2024,Martes,22:32:23,01:23:23,Moto,Residente,21:00-24:00,00:00-03:00,Sí
13/02/2024,Martes,10:04:33,13:28:33,Carro,Residente,09:00-12:00,12:00-15:00,Sí
28/05/2024,Martes,15:19:36,16:03:36,Moto,Residente,15:00-18:00,15:00-18:00,Sí
30/03/2024,Sabado,21:05:03,06:05:03,Carro,Visitante,21:00-24:00,06:00-09:00,Sí
29/08/2024,Jueves,17:14:10,21:47:10,?,Residente,15:00-18:00,21:00-24:00,Sí
19/03/2024,Martes,16:23:06,19:54:06,Moto,Residente,15:00-18:00,18:00-21:00,Sí
30/03/2024,Sabado,17:14:07,18:21:07,Carro,Administrador,15:00-18:00,18:00-21:00,Sí
09/07/2024,Martes,12:45:54,16:37:54,Carro,Residente,12:00-15:00,15:00-18:00,No
28/08/2024,Miércoles,09:57:05,13:07:05,Moto,Residente,09:00-12:00,12:00-15:00,Sí
31/01/2024,Miércoles,18:59:30,22:22:30,Carro,Residente,18:00-21:00,21:00-24:00,No
16/03/2024,Sabado,04:11:10,00:34:10,Moto,Administrador,03:00-06:00,00:00-03:00,Sí
02/08/2024,Viernes,06:52:20,09:07:20,Moto,Visitante,06:00-09:00,09:00-12:00,No
19/08/2024,Lunes,12:48:49,11:41:49,Moto,Residente,12:00-15:00,09:00-12:00,No
30/07/2024,Martes,00:08:12,15:23:12,Moto,Visitante,00:00-03:00,15:00-18:00,Sí
29/01/2024,Lunes,07:14:52,09:01:52,Carro,Visitante,06:00-09:00,09:00-12:00,No
09/05/2024,Jueves,08:27:50,18:40:50,Carro,Administrador,06:00-09:00,18:00-21:00,No
22/05/2024,Miércoles,12:19:49,17:02:49,Carro,Residente,12:00-15:00,15:00-18:00,No
21/02/2024,Miércoles,11:53:47,13:22:47,Carro,Visitante,09:00-12:00,12:00-15:00,Sí
15/08/2024,Jueves,03:20:38,05:02:38,Carro,Residente,03:00-06:00,03:00-06:00,Sí
15/05/2024,Miércoles,10:57:58,13:07:58,Carro,Visitante,09:00-12:00,12:00-15:00,Sí
28/08/2024,Miércoles,04:23:16,04:43:16,Carro,Visitante,03:00-06:00,03:00-06:00,Sí
21/09/2024,Sabado,12:23:08,05:48:08,Moto,Visitante,12:00-15:00,03:00-06:00,No
07/07/2024,Domingo,15:41:55,17:26:55,Carro,Administrador,15:00-18:00,15:00-18:00,Sí
09/03/2024,Sabado,10:13:21,11:42:21,Moto,Residente,09:00-12:00,09:00-12:00,Sí
30/08/2024,Viernes,09:38:57,12:44:57,Carro,Residente,09:00-12:00,12:00-15:00,Sí
06/02/2024,Martes,13:50:50,18:01:50,Carro,Residente,12:00-15:00,18:00-21:00,No
17/09/2024,Martes,11:21:01,15:26:01,Moto,Residente,09:00-12:00,15:00-18:00,Sí
19/04/2024,Viernes,07:39:43,06:27:43,Carro,Residente,06:00-09:00,06:00-09:00,No
29/10/2024,Martes,09:05:13,13:33:13,Carro,Residente,09:00-12:00,12:00-15:00,Sí
16/10/2024,Miércoles,04:09:21,09:37:21,Carro,Visitante,18:00-21:00,09:00-12:00,No
16/09/2024,Lunes,12:53:42,14:33:42,Carro,Residente,12:00-15:00,12:00-15:00,No
31/03/2024,Domingo,18:11:47,18:49:47,Moto,Visitante,18:00-21:00,18:00-21:00,No
21/01/2024,Domingo,10:09:05,16:55:05,Bicicleta,Visitante,09:00-12:00,15:00-18:00,Sí
05/03/2024,Martes,09:36:13,12:32:13,Carro,Residente,09:00-12:00,12:00-15:00,Sí
09/04/2024,Martes,08:28:29,12:33:29,Moto,Visitante,06:00-09:00,12:00-15:00,No
23/10/2024,Miércoles,15:47:20,17:15:20,Moto,Residente,15:00-18:00,15:00-18:00,Sí
23/10/2024,Miércoles,14:03:37,16:22:37,Carro,Residente,12:00-15:00,15:00-18:00,No
02/08/2024,Viernes,11:56:51,01:38:51,Bicicleta,Residente,09:00-12:00,00:00-03:00,Sí
02/07/2024,Martes,01:08:12,09:46:12,Moto,Visitante,00:00-03:00,09:00-12:00,No
31/08/2024,Sabado,13:28:50,17:31:50,Carro,Residente,12:00-15:00,15:00-18:00,No
22/02/2024,Jueves,01:35:05,05:23:05,Moto,Residente,00:00-03:00,03:00-06:00,Sí
25/04/2024,Jueves,10:41:26,03:12:26,Moto,Residente,09:00-12:00,03:00-06:00,No
24/04/2024,Miércoles,00:25:21,05:45:21,Carro,Residente,00:00-03:00,03:00-06:00,Sí
31/10/2024,Jueves,07:38:44,09:22:44,Carro,Residente,06:00-09:00,09:00-12:00,No
13/07/2024,Sabado,08:15:02,10:57:02,Carro,Residente,06:00-09:00,09:00-12:00,No
29/01/2024,Lunes,17:09:19,19:48:19,Carro,Residente,15:00-18:00,18:00-21:00,Sí
23/07/2024,Martes,06:32:31,11:30:31,Carro,Residente,06:00-09:00,09:00-12:00,No
28/08/2024,Miércoles,16:58:13,22:21:13,Carro,Residente,15:00-18:00,21:00-24:00,Sí
04/05/2024,Sabado,17:39:42,23:31:42,Carro,Residente,15:00-18:00,21:00-24:00,Sí
22/02/2024,Jueves,04:23:56,18:16:56,Carro,Residente,18:00-21:00,18:00-21:00,No
02/10/2024,Miércoles,08:44:17,09:40:17,Carro,Residente,06:00-09:00,09:00-12:00,No
13/02/2024,Martes,06:47:47,10:08:47,Moto,Residente,06:00-09:00,09:00-12:00,No
18/06/2024,Martes,12:57:33,14:43:33,Carro,Visitante,12:00-15:00,12:00-15:00,No
26/03/2024,Viernes,03:19:18,12:16:18,Carro,Residente,03:00-06:00,12:00-15:00,Sí
10/05/2024,Viernes,11:00:57,13:43:57,Carro,Visitante,09:00-12:00,12:00-15:00,Sí
06/08/2024,Martes,12:22:41,14:03:41,Carro,Visitante,12:00-15:00,12:00-15:00,No
11/09/2024,Miércoles,13:58:26,23:56:26,Moto,Residente,12:00-15:00,21:00-24:00,Sí
12/03/2024,Martes,16:11:58,18:04:58,Moto,Visitante,15:00-18:00,18:00-21:00,Sí
05/03/2024,Martes,14:34:05,19:41:05,Carro,Residente,12:00-15:00,18:00-21:00,No
01/04/2024,Lunes,13:02:06,14:32:06,Carro,Residente,12:00-15:00,12:00-15:00,No
01/06/2024,Domingo,05:08:20,08:16:20,Carro,Residente,03:00-06:00,06:00-09:00,Sí
29/07/2024,Lunes,17:51:15,21:01:15,Moto,Residente,15:00-18:00,21:00-24:00,Sí
31/08/2024,Sabado,12:25:57,22:10:57,?,Visitante,12:00-15:00,21:00-24:00,No
08/07/2024,Lunes,07:49:36,11:27:36,Moto,Residente,06:00-09:00,09:00-12:00,No
25/04/2024,Lunes,07:04:51,12:31:51,Carro,Visitante,06:00-09:00,12:00-15:00,No
29/10/2024,Martes,05:04:19,08:28:19,Carro,Residente,03:00-06:00,06:00-09:00,Sí
25/02/2024,Jueves,00:44:07,10:05:07,Carro,Residente,00:00-03:00,09:00-12:00,Sí
15/10/2024,Martes,16:43:59,19:45:59,Carro,Visitante,15:00-18:00,18:00-21:00,Sí
03/09/2024,Martes,06:22:54,10:56:54,Carro,Residente,06:00-09:00,09:00-12:00,No
07/06/2024,Viernes,13:25:44,17:30:44,Moto,Residente,12:00-15:00,15:00-18:00,No
13/10/2024,Domingo,19:39:47,01:21:47,Moto,Residente,18:00-21:00,00:00-03:00,No
04/06/2024,Martes,01:21:53,04:47:53,Carro,Residente,00:00-03:00,03:00-06:00,Sí
03/02/2024,Sabado,13:57:19,14:43:19,Moto,Visitante,12:00-15:00,12:00-15:00,No
07/04/2024,Domingo,16:32:29,19:24:29,Moto,Residente,15:00-18:00,18:00-21:00,Sí
29/09/2024,Domingo,15:42:30,17:47:30,Carro,Visitante,15:00-18:00,15:00-18:00,Sí
04/05/2024,Sabado,14:13:25,14:18:25,Carro,Visitante,12:00-15:00,12:00-15:00,No
04/02/2024,Domingo,04:35:25,13:28:25,Moto,Visitante,03:00-06:00,12:00-15:00,Sí
23/09/2024,Lunes,08:01:03,09:25:03,Carro,Administrador,06:00-09:00,09:00-12:00,No
31/08/2024,Sabado,09:48:18,10:48:18,Carro,Residente,09:00-12:00,09:00-12:00,Sí
01/01/2024,Lunes,01:28:46,08:32:46,Carro,Administrador,00:00-03:00,06:00-09:00,Sí
24/10/2024,Jueves,14:57:02,19:01:02,Moto,Residente,12:00-15:00,18:00-21:00,No
19/04/2024,Viernes,21:08:37,15:11:37,Carro,Residente,21:00-24:00,15:00-18:00,Sí
21/08/2024,Miércoles,14:29:43,14:57:43,Moto,Visitante,12:00-15:00,12:00-15:00,No
13/03/2024,Miércoles,12:02:58,19:05:58,Moto,Residente,12:00-15:00,18:00-21:00,Sí
06/05/2024,Lunes,16:38:39,19:41:39,Carro,Residente,15:00-18:00,18:00-21:00,Sí
01/03/2024,Viernes,06:25:23,07:06:23,Carro,Visitante,06:00-09:00,06:00-09:00,No
02/06/2024,Domingo,15:51:29,15:56:29,Carro,Visitante,15:00-18:00,15:00-18:00,Sí
02/10/2024,Miércoles,07:23:42,09:58:42,Carro,Visitante,06:00-09:00,09:00-12:00,No
27/05/2024,Lunes,23:05:27,00:09:27,Carro,Administrador,21:00-24:00,00:00-03:00,Sí
23/05/2024,Jueves,04:13:28,04:52:28,Carro,Residente,03:00-06:00,03:00-06:00,Sí
28/04/2024,Domingo,20:11:11,20:41:11,Carro,Residente,18:00-21:00,18:00-21:00,Sí
28/02/2024,Miércoles,16:31:04,19:16:04,Carro,Residente,15:00-18:00,18:00-21:00,Sí
28/10/2024,Lunes,17:39:40,07:03:40,Carro,Residente,21:00-24:00,06:00-09:00,Sí
30/10/2024,Miércoles,06:53:59,08:37:59,Moto,Residente,06:00-09:00,06:00-09:00,No
10/02/2024,Sabado,18:52:40,00:20:40,Carro,Residente,18:00-21:00,00:00-03:00,Sí
05/10/2024,Sabado,12:11:59,14:21:59,Carro,Visitante,12:00-15:00,12:00-15:00,No
22/08/2024,Jueves,04:38:34,06:31:34,Carro,Residente,03:00-06:00,06:00-09:00,Sí
01/08/2024,Jueves,03:28:13,11:45:13,Camioneta,Visitante,03:00-06:00,09:00-12:00,Sí
05/02/2024,Lunes,07:21:59,07:52:59,Carro,Visitante,06:00-09:00,06:00-09:00,No
01/03/2024,Sabado,12:50:06,02:07:06,Carro,Residente,12:00-15:00,00:00-03:00,No
06/06/2024,Jueves,06:56:36,09:25:36,Carro,Visitante,06:00-09:00,09:00-12:00,No
14/06/2024,Viernes,17:20:09,18:15:09,Moto,Residente,15:00-18:00,18:00-21:00,Sí
26/08/2024,Lunes,09:53:26,14:23:26,Moto,Residente,09:00-12:00,12:00-15:00,Sí
11/04/2024,Jueves,11:14:41,14:09:41,Carro,Residente,09:00-12:00,12:00-15:00,Sí
07/09/2024,Sabado,07:35:59,08:56:59,Carro,Visitante,06:00-09:00,06:00-09:00,No
06/10/2024,Domingo,08:01:46,10:35:46,Carro,Residente,06:00-09:00,09:00-12:00,No
18/06/2024,Lunes,09:21:45,00:11:45,Moto,Residente,09:00-12:00,00:00-03:00,Sí
07/08/2024,Miércoles,08:03:39,09:58:39,Carro,Administrador,06:00-09:00,09:00-12:00,No
